c WARNING: for repeatability, setting FPU to use double precision
d VARIABLES            21117        
d CONSTRAINTS          79909        
c ============================[ Problem Statistics ]=============================
c |                                                                             |
c |  Number of variables:         21117                                         |
c |  Number of clauses:           79909                                         |
c |  Parse time:                   0.01 s                                       |
c |                                                                             |
c ============================[ Search Statistics ]==============================
c | Conflicts |          ORIGINAL         |          LEARNT          | Progress |
c |           |    Vars  Clauses Literals |    Limit  Clauses Lit/Cl |          |
c ===============================================================================
c |       100 |   14322    59865   146876 |    21950      100    128 | 32.178 % |
c |       250 |   14322    59865   146876 |    24145      250    116 | 32.178 % |
c |       475 |   14322    59865   146876 |    26560      475    105 | 32.178 % |
c |       812 |   14322    59865   146876 |    29216      812    101 | 32.178 % |
c |      1318 |   14322    59865   146876 |    32137     1318    103 | 32.178 % |
c |      2077 |   14322    59865   146876 |    35351     2077    106 | 32.178 % |
c |      3216 |   14322    59865   146876 |    38886     3216     97 | 32.178 % |
c |      4924 |   14322    59865   146876 |    42775     4924    101 | 32.178 % |
c |      7486 |   14322    59865   146876 |    47052     7486    100 | 32.178 % |
c |     11330 |   14322    59865   146876 |    51758    11330     96 | 32.178 % |
c |     17096 |   14322    59865   146876 |    56933    17096    103 | 32.178 % |
c |     25745 |   14322    59865   146876 |    62627    25745    109 | 32.178 % |
c ===============================================================================
c restarts              : 109
c conflicts             : 30190          (3823 /sec)
c decisions             : 62787          (0.00 % random) (7951 /sec)
c propagations          : 31623970       (4004812 /sec)
c conflict literals     : 3195934        (48.83 % deleted)
d RESTARTS             109
d FAILURES             30190        
d NODES                62787        
d BACKTRACKS           62787        
d PROPAGATIONS         31623970     
d NOGOODSIZE           105.86 
d MEMORY               29.00 
d TIME                 7.89649 

s UNSATISFIABLE
